c instance by G2
c solution = 010011001101001
c Known solution cost is 803 
p cnf 15 30
w 41 89 34 59 74 8 34 73 85 53 54 53 41 67 38
-15 -6 -4 0
14 12 -7 0
-12 -4 8 0
9 -2 -10 0
-1 12 -9 0
14 -11 2 0
8 9 1 0
14 2 7 0
6 -8 5 0
3 -12 -14 0
1 6 3 0
-1 15 -3 0
14 1 15 0
12 8 -6 0
13 8 5 0
13 15 -10 0
3 -11 -4 0
-7 1 -10 0
6 -14 -7 0
11 -1 -6 0
9 -1 -8 0
3 -15 10 0
-15 13 -11 0
11 -15 -13 0
-2 -8 14 0
-8 13 -2 0
12 4 -1 0
-6 -3 -12 0
9 1 -11 0
-4 5 6 0
